
Welcome to IBM(R) ILOG(R) CPLEX(R) Interactive Optimizer 22.1.1.0
  with Simplex, Mixed Integer & Barrier Optimizers
5725-A06 5725-A29 5724-Y48 5724-Y49 5724-Y54 5724-Y55 5655-Y21
Copyright IBM Corp. 1988, 2022.  All Rights Reserved.

Type 'help' for a list of available commands.
Type 'help' followed by a command name for more
information on commands.

CPLEX> Selected objective sense:  MINIMIZE
Selected objective  name:  00000000
Selected RHS        name:  RHS1
Selected bound      name:  BOUND
Problem 'ee.mps' read.
Read time = 0.02 sec. (3.14 ticks)
CPLEX> New value for time limit in seconds: 7200
CPLEX> New value for parallel optimization mode: -1
CPLEX> New value for default parallel thread count: 40
CPLEX> New value for mixed integer optimality gap tolerance: 1e-13
CPLEX> Version identifier: 22.1.1.0 | 2022-11-28 | 9160aff4d
CPXPARAM_Threads                                 40
CPXPARAM_Parallel                                -1
CPXPARAM_TimeLimit                               7200
CPXPARAM_MIP_Tolerances_MIPGap                   1e-13
Found incumbent of value 0.000000 after 0.00 sec. (0.31 ticks)
Tried aggregator 2 times.
MIP Presolve eliminated 274 rows and 3331 columns.
MIP Presolve modified 5877 coefficients.
Aggregator did 873 substitutions.
Reduced MIP has 3370 rows, 6965 columns, and 25886 nonzeros.
Reduced MIP has 6965 binaries, 0 generals, 0 SOSs, and 0 indicators.
Presolve time = 0.07 sec. (69.99 ticks)
Probing fixed 24 vars, tightened 0 bounds.
Probing time = 0.06 sec. (28.74 ticks)
Tried aggregator 2 times.
Detecting symmetries...
MIP Presolve eliminated 26 rows and 44 columns.
Aggregator did 4 substitutions.
Reduced MIP has 3340 rows, 6911 columns, and 25712 nonzeros.
Reduced MIP has 6911 binaries, 0 generals, 0 SOSs, and 0 indicators.
Presolve time = 0.04 sec. (46.55 ticks)
Probing time = 0.02 sec. (5.05 ticks)
Clique table members: 16581.
MIP emphasis: balance optimality and feasibility.
MIP search method: dynamic search.
Parallel mode: opportunistic, using up to 40 threads.
Root relaxation solution time = 0.09 sec. (77.77 ticks)

        Nodes                                         Cuts/
   Node  Left     Objective  IInf  Best Integer    Best Bound    ItCnt     Gap

*     0+    0                            0.0000  -1.31000e+13              --- 
*     0+    0                      -2.09000e+12  -1.31000e+13           526.79%
*     0+    0                      -2.20000e+12  -1.31000e+13           495.45%
*     0+    0                      -3.30000e+12  -1.31000e+13           296.97%
*     0+    0                      -3.30000e+12  -1.31000e+13           296.97%
*     0+    0                      -4.40000e+12  -1.31000e+13           197.73%
*     0+    0                      -5.50000e+12  -1.31000e+13           138.18%
      0     0  -1.30900e+13    20  -5.50000e+12  -1.30900e+13     1811  138.00%
*     0+    0                      -1.30900e+13  -1.30900e+13             0.00%
      0     0  -1.30900e+13   124  -1.30900e+13      Cuts: 38     2057    0.00%
*     0+    0                      -1.30900e+13  -1.30900e+13             0.00%
      0     0  -1.30900e+13   114  -1.30900e+13      Cuts: 88     2713    0.00%
      0     0  -1.30900e+13   132  -1.30900e+13      Cuts: 49     2991    0.00%
*     0+    0                      -1.30900e+13  -1.30900e+13             0.00%
*     0+    0                      -1.30900e+13  -1.30900e+13             0.00%
      0    26        cutoff        -1.30900e+13  -1.30900e+13    11410    0.00%
Elapsed time = 2.17 sec. (954.17 ticks, tree = 0.02 MB, solutions = 11)
*    41+   38                      -1.30900e+13  -1.30900e+13             0.00%
    411    60  -1.30900e+13   147  -1.30900e+13  -1.30900e+13    23104    0.00%
   1171    50        cutoff        -1.30900e+13  -1.30900e+13    47397    0.00%
   1882    91        cutoff        -1.30900e+13  -1.30900e+13   102582    0.00%
   2643    46        cutoff        -1.30900e+13  -1.30900e+13   182855    0.00%
   3631    44  -1.30900e+13    83  -1.30900e+13  -1.30900e+13   182591    0.00%
   4852    60        cutoff        -1.30900e+13  -1.30900e+13   242271    0.00%
   5679    56  -1.30900e+13    86  -1.30900e+13  -1.30900e+13   241300    0.00%
   6256    54  -1.30900e+13   122  -1.30900e+13  -1.30900e+13   242493    0.00%
   6460    81  -1.30900e+13   105  -1.30900e+13  -1.30900e+13   275134    0.00%

GUB cover cuts applied:  3
Clique cuts applied:  20
Cover cuts applied:  659
Flow cuts applied:  2
Mixed integer rounding cuts applied:  1
Zero-half cuts applied:  14
Lift and project cuts applied:  6
Gomory fractional cuts applied:  21

Root node processing (before b&c):
  Real time             =    1.21 sec. (943.30 ticks)
Parallel b&c, 40 threads:
  Real time             =    3.99 sec. (2376.09 ticks)
  Sync time (average)   =    1.20 sec.
  Wait time (average)   =    0.00 sec.
                          ------------
Total (root+branch&cut) =    5.20 sec. (3319.40 ticks)

Solution pool: 15 solutions saved.

MIP - Integer optimal solution:  Objective = -1.3089999690e+13
Solution time =    5.31 sec.  Iterations = 359524  Nodes = 6482
Deterministic time = 3319.43 ticks  (624.80 ticks/sec)

CPLEX> Solution 'p16' written to file 'ee.sol'.
CPLEX> 